1
1000
190
250 13
251 8
252 8
253 11
254 7
255 9
256 6
257 6
258 5
259 5
260 3
261 7
262 7
263 4
264 5
265 7
266 10
267 4
268 4
269 8
270 3
271 2
272 6
273 3
274 6
275 6
276 3
277 1
278 3
279 3
280 3
281 2
282 4
283 2
284 3
286 5
287 5
288 5
289 1
290 6
291 3
292 3
293 2
294 4
295 2
296 3
297 4
298 5
299 3
300 3
302 4
303 1
305 2
306 2
307 1
308 2
309 1
310 1
312 2
313 2
315 4
317 3
318 3
320 2
321 1
322 1
324 2
325 5
327 2
329 3
330 1
331 1
332 1
334 2
335 1
337 2
338 2
339 2
340 1
341 1
345 2
346 2
348 3
349 1
350 4
351 1
352 4
353 1
354 2
355 1
356 1
357 3
358 4
359 1
360 1
361 2
363 1
364 1
365 1
366 1
367 1
368 7
369 3
370 4
371 1
373 4
374 1
375 2
377 3
378 2
379 3
380 3
381 2
384 1
385 1
386 1
387 2
388 5
389 2
390 2
391 4
393 1
394 2
395 2
398 1
399 1
406 1
407 2
409 1
410 2
412 1
413 1
415 2
417 3
418 1
420 1
422 2
424 1
426 3
427 2
428 1
429 1
433 2
434 1
435 1
436 1
437 2
438 2
439 1
441 1
443 2
444 3
445 1
446 1
449 1
450 3
452 1
453 2
454 1
455 5
456 2
457 5
459 1
460 1
461 1
463 1
464 1
465 3
466 1
468 1
470 3
471 1
472 2
473 2
474 1
476 1
477 2
479 1
480 1
484 1
485 1
486 2
487 2
488 1
492 1
493 2
494 1
495 3
497 1
498 2
